set VariabiliMinZero 	:= x2;
set VariabiliMaggZero 	:= x1,x3;
set Variabili 			:= x1, x2,x3;
set VincoliMinori 		:= r1;
set VincoliMaggiori		:= r2;
set Vincoli 			:= r1, r2;

param alpha := 0;

param b :=
r1  7
r2  6
;

param c :=
x1   8
x2  -1
x3   4
;

param a :
	x1  x2  x3  =
r1   6   1   0 
r2   3  -1   1
;